p cnf 86 903
-43 -40 -37 0
-43 -40 -3 0
-43 -6 -3 0
-42 -39 -36 0
-42 -39 -2 0
-42 -5 -2 0
-41 -38 -35 0
-41 -38 -1 0
-41 -4 -1 0
-40 -37 -34 0
-39 -36 -33 0
-38 -35 -32 0
-37 -34 -31 0
-36 -33 -30 0
-35 -32 -29 0
-34 -31 -28 0
-33 -30 -27 0
-32 -29 -26 0
-31 -28 -25 0
-30 -27 -24 0
-29 -26 -23 0
-28 -25 -22 0
-27 -24 -21 0
-26 -23 -20 0
-25 -22 -19 0
-24 -21 -18 0
-23 -20 -17 0
-22 -19 -16 0
-21 -18 -15 0
-20 -17 -14 0
-19 -16 -13 0
-18 -15 -12 0
-17 -14 -11 0
-16 -13 -10 0
-15 -12 -9 0
-14 -11 -8 0
-13 -10 -7 0
-12 -9 -6 0
-11 -8 -5 0
-10 -7 -4 0
-9 -6 -3 0
-8 -5 -2 0
-7 -4 -1 0
1 12 44 0
1 14 0
1 14 57 0
1 14 63 0
1 14 70 0
1 14 76 0
1 18 44 50 0
1 20 0
1 20 63 0
1 20 76 0
1 25 0
1 25 44 0
1 25 57 0
1 27 70 76 0
1 31 0
1 31 44 0
1 31 50 0
1 31 57 0
1 31 63 0
1 33 76 0
1 44 0
1 44 57 0
1 44 76 0
1 50 0
1 50 63 0
1 57 70 0
1 63 76 0
1 70 0
1 76 0
2 13 45 0
2 15 0
2 15 58 0
2 15 64 0
2 15 71 0
2 15 77 0
2 19 45 51 0
2 21 0
2 21 64 0
2 21 77 0
2 26 0
2 26 45 0
2 26 58 0
2 28 71 77 0
2 32 0
2 32 45 0
2 32 51 0
2 32 58 0
2 32 64 0
2 34 77 0
2 45 0
2 45 58 0
2 45 77 0
2 51 0
2 51 64 0
2 58 71 0
2 64 77 0
2 71 0
2 77 0
3 14 46 0
3 16 0
3 16 59 0
3 16 65 0
3 16 72 0
3 16 78 0
3 20 46 52 0
3 22 0
3 22 65 0
3 22 78 0
3 27 0
3 27 46 0
3 27 59 0
3 29 72 78 0
3 33 0
3 33 46 0
3 33 52 0
3 33 59 0
3 33 65 0
3 35 78 0
3 46 0
3 46 59 0
3 46 78 0
3 52 0
3 52 65 0
3 59 72 0
3 65 78 0
3 72 0
3 78 0
4 15 47 0
4 17 0
4 17 60 0
4 17 66 0
4 17 73 0
4 17 79 0
4 21 47 53 0
4 23 0
4 23 66 0
4 23 79 0
4 28 0
4 28 47 0
4 28 60 0
4 30 73 79 0
4 34 0
4 34 47 0
4 34 53 0
4 34 60 0
4 34 66 0
4 36 79 0
4 47 0
4 47 60 0
4 47 79 0
4 53 0
4 53 66 0
4 60 73 0
4 66 79 0
4 73 0
4 79 0
5 16 48 0
5 18 0
5 18 61 0
5 18 67 0
5 18 74 0
5 18 80 0
5 22 48 54 0
5 24 0
5 24 67 0
5 24 80 0
5 29 0
5 29 48 0
5 29 61 0
5 31 74 80 0
5 35 0
5 35 48 0
5 35 54 0
5 35 61 0
5 35 67 0
5 37 80 0
5 48 0
5 48 61 0
5 48 80 0
5 54 0
5 54 67 0
5 61 74 0
5 67 80 0
5 74 0
5 80 0
6 17 49 0
6 19 0
6 19 62 0
6 19 68 0
6 19 75 0
6 19 81 0
6 23 49 55 0
6 25 0
6 25 68 0
6 25 81 0
6 30 0
6 30 49 0
6 30 62 0
6 32 75 81 0
6 36 0
6 36 49 0
6 36 55 0
6 36 62 0
6 36 68 0
6 38 81 0
6 49 0
6 49 62 0
6 49 81 0
6 55 0
6 55 68 0
6 62 75 0
6 68 81 0
6 75 0
6 81 0
7 18 50 0
7 20 0
7 20 63 0
7 20 69 0
7 20 76 0
7 20 82 0
7 24 50 56 0
7 26 0
7 26 69 0
7 26 82 0
7 31 0
7 31 50 0
7 31 63 0
7 33 76 82 0
7 37 0
7 37 50 0
7 37 56 0
7 37 63 0
7 37 69 0
7 39 82 0
7 50 0
7 50 63 0
7 50 82 0
7 56 0
7 56 69 0
7 63 76 0
7 69 82 0
7 76 0
7 82 0
8 19 51 0
8 21 0
8 21 64 0
8 21 70 0
8 21 77 0
8 21 83 0
8 25 51 57 0
8 27 0
8 27 70 0
8 27 83 0
8 32 0
8 32 51 0
8 32 64 0
8 34 77 83 0
8 38 0
8 38 51 0
8 38 57 0
8 38 64 0
8 38 70 0
8 40 83 0
8 51 0
8 51 64 0
8 51 83 0
8 57 0
8 57 70 0
8 64 77 0
8 70 83 0
8 77 0
8 83 0
9 20 52 0
9 22 0
9 22 65 0
9 22 71 0
9 22 78 0
9 22 84 0
9 26 52 58 0
9 28 0
9 28 71 0
9 28 84 0
9 33 0
9 33 52 0
9 33 65 0
9 35 78 84 0
9 39 0
9 39 52 0
9 39 58 0
9 39 65 0
9 39 71 0
9 41 84 0
9 52 0
9 52 65 0
9 52 84 0
9 58 0
9 58 71 0
9 65 78 0
9 71 84 0
9 78 0
9 84 0
10 21 53 0
10 23 0
10 23 66 0
10 23 72 0
10 23 79 0
10 23 85 0
10 27 53 59 0
10 29 0
10 29 72 0
10 29 85 0
10 34 0
10 34 53 0
10 34 66 0
10 36 79 85 0
10 40 0
10 40 53 0
10 40 59 0
10 40 66 0
10 40 72 0
10 42 85 0
10 53 0
10 53 66 0
10 53 85 0
10 59 0
10 59 72 0
10 66 79 0
10 72 85 0
10 79 0
10 85 0
11 22 54 0
11 24 0
11 24 67 0
11 24 73 0
11 24 80 0
11 24 86 0
11 28 54 60 0
11 30 0
11 30 73 0
11 30 86 0
11 35 0
11 35 54 0
11 35 67 0
11 37 80 86 0
11 41 0
11 41 54 0
11 41 60 0
11 41 67 0
11 41 73 0
11 43 86 0
11 54 0
11 54 67 0
11 54 86 0
11 60 0
11 60 73 0
11 67 80 0
11 73 86 0
11 80 0
11 86 0
12 23 55 0
12 25 0
12 25 44 0
12 25 68 0
12 25 74 0
12 25 81 0
12 29 55 61 0
12 31 0
12 31 44 0
12 31 74 0
12 36 0
12 36 55 0
12 36 68 0
12 38 44 81 0
12 42 0
12 42 55 0
12 42 61 0
12 42 68 0
12 42 74 0
12 44 0
12 44 55 0
12 44 74 0
12 55 0
12 55 68 0
12 61 0
12 61 74 0
12 68 81 0
12 81 0
13 24 56 0
13 26 0
13 26 45 0
13 26 69 0
13 26 75 0
13 26 82 0
13 30 56 62 0
13 32 0
13 32 45 0
13 32 75 0
13 37 0
13 37 56 0
13 37 69 0
13 39 45 82 0
13 43 0
13 43 56 0
13 43 62 0
13 43 69 0
13 43 75 0
13 45 0
13 45 56 0
13 45 75 0
13 56 0
13 56 69 0
13 62 0
13 62 75 0
13 69 82 0
13 82 0
14 25 57 0
14 27 0
14 27 46 0
14 27 70 0
14 27 76 0
14 27 83 0
14 31 57 63 0
14 33 0
14 33 46 0
14 33 76 0
14 38 0
14 38 57 0
14 38 70 0
14 40 46 83 0
14 46 0
14 46 57 0
14 46 76 0
14 57 0
14 57 70 0
14 63 0
14 63 76 0
14 70 83 0
14 83 0
15 26 58 0
15 28 0
15 28 47 0
15 28 71 0
15 28 77 0
15 28 84 0
15 32 58 64 0
15 34 0
15 34 47 0
15 34 77 0
15 39 0
15 39 58 0
15 39 71 0
15 41 47 84 0
15 47 0
15 47 58 0
15 47 77 0
15 58 0
15 58 71 0
15 64 0
15 64 77 0
15 71 84 0
15 84 0
16 27 59 0
16 29 0
16 29 48 0
16 29 72 0
16 29 78 0
16 29 85 0
16 33 59 65 0
16 35 0
16 35 48 0
16 35 78 0
16 40 0
16 40 59 0
16 40 72 0
16 42 48 85 0
16 48 0
16 48 59 0
16 48 78 0
16 59 0
16 59 72 0
16 65 0
16 65 78 0
16 72 85 0
16 85 0
17 28 60 0
17 30 0
17 30 49 0
17 30 73 0
17 30 79 0
17 30 86 0
17 34 60 66 0
17 36 0
17 36 49 0
17 36 79 0
17 41 0
17 41 60 0
17 41 73 0
17 43 49 86 0
17 49 0
17 49 60 0
17 49 79 0
17 60 0
17 60 73 0
17 66 0
17 66 79 0
17 73 86 0
17 86 0
18 29 61 0
18 31 0
18 31 44 0
18 31 50 0
18 31 74 0
18 31 80 0
18 35 61 67 0
18 37 0
18 37 50 0
18 37 80 0
18 42 0
18 42 61 0
18 42 74 0
18 44 0
18 44 74 0
18 50 0
18 50 61 0
18 50 80 0
18 61 0
18 61 74 0
18 67 0
18 67 80 0
19 30 62 0
19 32 0
19 32 45 0
19 32 51 0
19 32 75 0
19 32 81 0
19 36 62 68 0
19 38 0
19 38 51 0
19 38 81 0
19 43 0
19 43 62 0
19 43 75 0
19 45 0
19 45 75 0
19 51 0
19 51 62 0
19 51 81 0
19 62 0
19 62 75 0
19 68 0
19 68 81 0
20 31 63 0
20 33 0
20 33 46 0
20 33 52 0
20 33 76 0
20 33 82 0
20 37 63 69 0
20 39 0
20 39 52 0
20 39 82 0
20 46 0
20 46 76 0
20 52 0
20 52 63 0
20 52 82 0
20 63 0
20 63 76 0
20 69 0
20 69 82 0
21 32 64 0
21 34 0
21 34 47 0
21 34 53 0
21 34 77 0
21 34 83 0
21 38 64 70 0
21 40 0
21 40 53 0
21 40 83 0
21 47 0
21 47 77 0
21 53 0
21 53 64 0
21 53 83 0
21 64 0
21 64 77 0
21 70 0
21 70 83 0
22 33 65 0
22 35 0
22 35 48 0
22 35 54 0
22 35 78 0
22 35 84 0
22 39 65 71 0
22 41 0
22 41 54 0
22 41 84 0
22 48 0
22 48 78 0
22 54 0
22 54 65 0
22 54 84 0
22 65 0
22 65 78 0
22 71 0
22 71 84 0
23 34 66 0
23 36 0
23 36 49 0
23 36 55 0
23 36 79 0
23 36 85 0
23 40 66 72 0
23 42 0
23 42 55 0
23 42 85 0
23 49 0
23 49 79 0
23 55 0
23 55 66 0
23 55 85 0
23 66 0
23 66 79 0
23 72 0
23 72 85 0
24 35 67 0
24 37 0
24 37 50 0
24 37 56 0
24 37 80 0
24 37 86 0
24 41 67 73 0
24 43 0
24 43 56 0
24 43 86 0
24 50 0
24 50 80 0
24 56 0
24 56 67 0
24 56 86 0
24 67 0
24 67 80 0
24 73 0
24 73 86 0
25 36 68 0
25 38 0
25 38 44 0
25 38 51 0
25 38 57 0
25 38 81 0
25 42 68 74 0
25 44 57 0
25 44 74 0
25 51 0
25 51 81 0
25 57 0
25 57 68 0
25 68 0
25 68 81 0
25 74 0
26 37 69 0
26 39 0
26 39 45 0
26 39 52 0
26 39 58 0
26 39 82 0
26 43 69 75 0
26 45 58 0
26 45 75 0
26 52 0
26 52 82 0
26 58 0
26 58 69 0
26 69 0
26 69 82 0
26 75 0
27 38 70 0
27 40 0
27 40 46 0
27 40 53 0
27 40 59 0
27 40 83 0
27 46 59 0
27 46 76 0
27 53 0
27 53 83 0
27 59 0
27 59 70 0
27 70 0
27 70 83 0
27 76 0
28 39 71 0
28 41 0
28 41 47 0
28 41 54 0
28 41 60 0
28 41 84 0
28 47 60 0
28 47 77 0
28 54 0
28 54 84 0
28 60 0
28 60 71 0
28 71 0
28 71 84 0
28 77 0
29 40 72 0
29 42 0
29 42 48 0
29 42 55 0
29 42 61 0
29 42 85 0
29 48 61 0
29 48 78 0
29 55 0
29 55 85 0
29 61 0
29 61 72 0
29 72 0
29 72 85 0
29 78 0
30 41 73 0
30 43 0
30 43 49 0
30 43 56 0
30 43 62 0
30 43 86 0
30 49 62 0
30 49 79 0
30 56 0
30 56 86 0
30 62 0
30 62 73 0
30 73 0
30 73 86 0
30 79 0
31 42 74 0
31 44 57 0
31 44 74 0
31 50 63 0
31 50 80 0
31 57 0
31 63 0
31 63 74 0
31 74 0
31 80 0
32 43 75 0
32 45 58 0
32 45 75 0
32 51 64 0
32 51 81 0
32 58 0
32 64 0
32 64 75 0
32 75 0
32 81 0
33 46 59 0
33 46 76 0
33 52 65 0
33 52 82 0
33 59 0
33 65 0
33 65 76 0
33 76 0
33 82 0
34 47 60 0
34 47 77 0
34 53 66 0
34 53 83 0
34 60 0
34 66 0
34 66 77 0
34 77 0
34 83 0
35 48 61 0
35 48 78 0
35 54 67 0
35 54 84 0
35 61 0
35 67 0
35 67 78 0
35 78 0
35 84 0
36 49 62 0
36 49 79 0
36 55 68 0
36 55 85 0
36 62 0
36 68 0
36 68 79 0
36 79 0
36 85 0
37 50 63 0
37 50 80 0
37 56 69 0
37 56 86 0
37 63 0
37 69 0
37 69 80 0
37 80 0
37 86 0
38 44 0
38 44 57 0
38 51 64 0
38 51 81 0
38 57 70 0
38 64 0
38 70 0
38 70 81 0
38 81 0
39 45 0
39 45 58 0
39 52 65 0
39 52 82 0
39 58 71 0
39 65 0
39 71 0
39 71 82 0
39 82 0
40 46 0
40 46 59 0
40 53 66 0
40 53 83 0
40 59 72 0
40 66 0
40 72 0
40 72 83 0
40 83 0
41 47 0
41 47 60 0
41 54 67 0
41 54 84 0
41 60 73 0
41 67 0
41 73 0
41 73 84 0
41 84 0
42 48 0
42 48 61 0
42 55 68 0
42 55 85 0
42 61 74 0
42 68 0
42 74 0
42 74 85 0
42 85 0
43 49 0
43 49 62 0
43 56 69 0
43 56 86 0
43 62 75 0
43 69 0
43 75 0
43 75 86 0
43 86 0
44 0
45 0
46 0
47 0
48 0
49 0
50 0
51 0
52 0
53 0
54 0
55 0
56 0
57 0
58 0
59 0
60 0
61 0
62 0
63 0
64 0
65 0
66 0
67 0
68 0
69 0
70 0
71 0
72 0
73 0
74 0
75 0
76 0
77 0
78 0
79 0
80 0
81 0
82 0
83 0
84 0
85 0
86 0
